Minimize
  obj: x0 + x1 + x2 + x3

Subject To
  c0: x0 + x3 = 117
  c1: x0 + x1 = 33
  c2: x1 + x2 + x3 = 118
  c3: x2 + x3 = 101

Bounds
  x0 >= 0
  x1 >= 0
  x2 >= 0
  x3 >= 0

Generals
  x0 x1 x2 x3

End
